p edge 51 640
e 1 2
e 1 4
e 1 5
e 1 7
e 1 9
e 1 10
e 1 12
e 1 14
e 1 15
e 1 18
e 1 19
e 1 25
e 1 26
e 1 32
e 1 34
e 1 36
e 1 39
e 1 42
e 1 44
e 1 45
e 1 47
e 1 48
e 1 49
e 1 51
e 2 3
e 2 4
e 2 7
e 2 8
e 2 9
e 2 10
e 2 12
e 2 16
e 2 17
e 2 18
e 2 19
e 2 20
e 2 24
e 2 28
e 2 29
e 2 32
e 2 33
e 2 34
e 2 36
e 2 38
e 2 39
e 2 40
e 2 42
e 2 43
e 2 45
e 2 46
e 2 47
e 2 48
e 2 49
e 2 51
e 3 4
e 3 5
e 3 8
e 3 11
e 3 12
e 3 13
e 3 14
e 3 15
e 3 16
e 3 17
e 3 18
e 3 22
e 3 26
e 3 27
e 3 30
e 3 31
e 3 32
e 3 35
e 3 37
e 3 38
e 3 40
e 3 41
e 3 42
e 3 43
e 3 45
e 3 46
e 3 47
e 3 48
e 3 49
e 3 51
e 4 5
e 4 6
e 4 9
e 4 11
e 4 12
e 4 17
e 4 18
e 4 20
e 4 22
e 4 25
e 4 26
e 4 27
e 4 30
e 4 31
e 4 35
e 4 36
e 4 37
e 4 38
e 4 39
e 4 40
e 4 41
e 4 43
e 4 45
e 4 46
e 4 47
e 4 49
e 4 51
e 5 11
e 5 13
e 5 15
e 5 18
e 5 20
e 5 21
e 5 23
e 5 31
e 5 34
e 5 35
e 5 36
e 5 37
e 5 40
e 5 41
e 5 43
e 5 46
e 5 48
e 5 51
e 6 9
e 6 12
e 6 14
e 6 17
e 6 18
e 6 20
e 6 22
e 6 23
e 6 25
e 6 27
e 6 28
e 6 29
e 6 31
e 6 32
e 6 33
e 6 34
e 6 36
e 6 39
e 6 41
e 6 42
e 6 45
e 6 48
e 6 50
e 7 8
e 7 10
e 7 11
e 7 12
e 7 13
e 7 17
e 7 18
e 7 19
e 7 20
e 7 21
e 7 22
e 7 23
e 7 27
e 7 33
e 7 34
e 7 36
e 7 37
e 7 39
e 7 41
e 7 42
e 7 44
e 7 45
e 7 48
e 7 49
e 7 51
e 8 9
e 8 10
e 8 11
e 8 13
e 8 17
e 8 21
e 8 22
e 8 23
e 8 24
e 8 25
e 8 28
e 8 29
e 8 31
e 8 35
e 8 36
e 8 38
e 8 41
e 8 43
e 8 44
e 8 47
e 8 48
e 8 51
e 9 10
e 9 12
e 9 13
e 9 15
e 9 17
e 9 18
e 9 20
e 9 26
e 9 27
e 9 28
e 9 29
e 9 30
e 9 32
e 9 33
e 9 34
e 9 36
e 9 38
e 9 39
e 9 40
e 9 43
e 9 47
e 9 50
e 10 11
e 10 15
e 10 18
e 10 19
e 10 21
e 10 22
e 10 28
e 10 30
e 10 31
e 10 32
e 10 36
e 10 38
e 10 39
e 10 40
e 10 43
e 10 45
e 10 46
e 10 47
e 10 50
e 11 12
e 11 14
e 11 15
e 11 21
e 11 24
e 11 28
e 11 29
e 11 30
e 11 31
e 11 33
e 11 36
e 11 38
e 11 39
e 11 40
e 11 41
e 11 43
e 11 49
e 11 50
e 11 51
e 12 14
e 12 15
e 12 16
e 12 18
e 12 20
e 12 21
e 12 24
e 12 25
e 12 28
e 12 29
e 12 36
e 12 38
e 12 40
e 12 41
e 12 45
e 12 46
e 12 50
e 12 51
e 13 14
e 13 15
e 13 17
e 13 18
e 13 19
e 13 22
e 13 23
e 13 24
e 13 25
e 13 27
e 13 32
e 13 33
e 13 34
e 13 35
e 13 36
e 13 38
e 13 39
e 13 41
e 13 42
e 13 47
e 13 48
e 13 51
e 14 17
e 14 18
e 14 19
e 14 21
e 14 22
e 14 23
e 14 24
e 14 27
e 14 28
e 14 29
e 14 31
e 14 34
e 14 37
e 14 38
e 14 39
e 14 40
e 14 41
e 14 44
e 14 46
e 14 50
e 14 51
e 15 19
e 15 27
e 15 31
e 15 32
e 15 36
e 15 38
e 15 41
e 15 42
e 15 44
e 15 46
e 15 47
e 15 49
e 15 51
e 16 18
e 16 19
e 16 20
e 16 21
e 16 22
e 16 25
e 16 27
e 16 34
e 16 36
e 16 37
e 16 39
e 16 41
e 16 42
e 16 44
e 16 46
e 16 47
e 16 49
e 16 50
e 16 51
e 17 18
e 17 19
e 17 21
e 17 22
e 17 27
e 17 28
e 17 29
e 17 33
e 17 34
e 17 35
e 17 38
e 17 39
e 17 40
e 17 41
e 17 45
e 17 46
e 17 47
e 17 48
e 18 19
e 18 20
e 18 22
e 18 23
e 18 24
e 18 25
e 18 32
e 18 36
e 18 40
e 18 42
e 18 43
e 18 44
e 18 46
e 18 47
e 18 48
e 18 49
e 19 20
e 19 21
e 19 23
e 19 24
e 19 25
e 19 27
e 19 30
e 19 31
e 19 32
e 19 34
e 19 35
e 19 36
e 19 37
e 19 40
e 19 41
e 19 42
e 19 43
e 19 45
e 19 47
e 19 48
e 19 49
e 19 51
e 20 21
e 20 24
e 20 26
e 20 29
e 20 30
e 20 33
e 20 35
e 20 37
e 20 38
e 20 40
e 20 42
e 20 43
e 20 46
e 20 47
e 20 48
e 20 51
e 21 26
e 21 27
e 21 29
e 21 30
e 21 31
e 21 33
e 21 35
e 21 40
e 21 41
e 21 42
e 21 43
e 21 44
e 21 48
e 21 49
e 21 51
e 22 24
e 22 27
e 22 30
e 22 31
e 22 36
e 22 39
e 22 40
e 22 41
e 22 44
e 22 47
e 22 48
e 22 50
e 23 24
e 23 25
e 23 28
e 23 29
e 23 33
e 23 35
e 23 36
e 23 39
e 23 40
e 23 41
e 23 42
e 23 43
e 23 45
e 23 50
e 23 51
e 24 25
e 24 26
e 24 28
e 24 32
e 24 36
e 24 38
e 24 41
e 24 43
e 24 44
e 24 49
e 24 50
e 25 26
e 25 31
e 25 32
e 25 34
e 25 35
e 25 37
e 25 38
e 25 39
e 25 40
e 25 41
e 25 45
e 25 47
e 25 48
e 25 50
e 25 51
e 26 30
e 26 32
e 26 33
e 26 36
e 26 37
e 26 40
e 26 41
e 26 45
e 26 46
e 26 47
e 26 49
e 26 50
e 26 51
e 27 31
e 27 34
e 27 37
e 27 42
e 27 45
e 27 50
e 27 51
e 28 29
e 28 30
e 28 32
e 28 34
e 28 35
e 28 38
e 28 42
e 28 43
e 28 45
e 28 46
e 28 51
e 29 34
e 29 35
e 29 36
e 29 37
e 29 47
e 29 48
e 29 51
e 30 31
e 30 33
e 30 34
e 30 37
e 30 39
e 30 42
e 30 44
e 30 45
e 30 46
e 30 49
e 31 32
e 31 34
e 31 36
e 31 39
e 31 40
e 31 41
e 31 43
e 31 48
e 31 49
e 32 33
e 32 34
e 32 36
e 32 38
e 32 41
e 32 44
e 32 45
e 32 47
e 32 51
e 33 34
e 33 35
e 33 37
e 33 39
e 33 41
e 33 42
e 33 43
e 33 44
e 33 45
e 33 46
e 33 51
e 34 35
e 34 36
e 34 38
e 34 40
e 34 46
e 34 47
e 34 49
e 34 51
e 35 40
e 35 43
e 35 44
e 35 49
e 35 50
e 35 51
e 36 40
e 36 41
e 36 42
e 36 43
e 36 44
e 36 45
e 36 46
e 36 50
e 37 40
e 37 42
e 37 46
e 37 49
e 38 41
e 38 42
e 38 43
e 38 44
e 38 49
e 38 51
e 39 40
e 39 41
e 39 42
e 39 46
e 39 47
e 39 48
e 39 51
e 40 42
e 40 45
e 40 50
e 41 44
e 41 46
e 41 47
e 41 49
e 41 50
e 42 44
e 42 46
e 42 48
e 42 49
e 43 44
e 43 46
e 43 48
e 43 49
e 43 51
e 44 45
e 44 48
e 44 49
e 44 50
e 44 51
e 45 48
e 45 49
e 45 50
e 46 48
e 46 49
e 46 50
e 47 48
e 48 49
e 48 51
e 49 50
